c nIsolatedPIs 0
c maxPI 20
p cnf 694 2023
c gate 21 10 16 0
10 -21 0
16 -21 0
-10 -16 21 0
c gate 22 8 17 0
8 -22 0
17 -22 0
-8 -17 22 0
c gate 23 7 18 0
7 -23 0
18 -23 0
-7 -18 23 0
c gate 24 22 23 0
22 -24 0
23 -24 0
-22 -23 24 0
c gate 25 6 19 0
6 -25 0
19 -25 0
-6 -19 25 0
c gate 26 -22 -23 0
-22 -26 0
-23 -26 0
22 23 26 0
c gate 27 -24 -26 0
-24 -27 0
-26 -27 0
24 26 27 0
c gate 28 25 27 0
25 -28 0
27 -28 0
-25 -27 28 0
c gate 29 -24 -28 0
-24 -29 0
-28 -29 0
24 28 29 0
c gate 30 7 19 0
7 -30 0
19 -30 0
-7 -19 30 0
c gate 31 8 18 0
8 -31 0
18 -31 0
-8 -18 31 0
c gate 32 9 17 0
9 -32 0
17 -32 0
-9 -17 32 0
c gate 33 -31 -32 0
-31 -33 0
-32 -33 0
31 32 33 0
c gate 34 31 32 0
31 -34 0
32 -34 0
-31 -32 34 0
c gate 35 -33 -34 0
-33 -35 0
-34 -35 0
33 34 35 0
c gate 36 30 35 0
30 -36 0
35 -36 0
-30 -35 36 0
c gate 37 -30 -35 0
-30 -37 0
-35 -37 0
30 35 37 0
c gate 38 -36 -37 0
-36 -38 0
-37 -38 0
36 37 38 0
c gate 39 10 15 0
10 -39 0
15 -39 0
-10 -15 39 0
c gate 40 9 16 0
9 -40 0
16 -40 0
-9 -16 40 0
c gate 41 39 40 0
39 -41 0
40 -41 0
-39 -40 41 0
c gate 42 38 41 0
38 -42 0
41 -42 0
-38 -41 42 0
c gate 43 -38 -41 0
-38 -43 0
-41 -43 0
38 41 43 0
c gate 44 -42 -43 0
-42 -44 0
-43 -44 0
42 43 44 0
c gate 45 29 -44 0
29 -45 0
-44 -45 0
-29 44 45 0
c gate 46 -29 44 0
-29 -46 0
44 -46 0
29 -44 46 0
c gate 47 -45 -46 0
-45 -47 0
-46 -47 0
45 46 47 0
c gate 48 21 47 0
21 -48 0
47 -48 0
-21 -47 48 0
c gate 49 -34 -36 0
-34 -49 0
-36 -49 0
34 36 49 0
c gate 50 8 19 0
8 -50 0
19 -50 0
-8 -19 50 0
c gate 51 9 18 0
9 -51 0
18 -51 0
-9 -18 51 0
c gate 52 10 17 0
10 -52 0
17 -52 0
-10 -17 52 0
c gate 53 -51 -52 0
-51 -53 0
-52 -53 0
51 52 53 0
c gate 54 51 52 0
51 -54 0
52 -54 0
-51 -52 54 0
c gate 55 -53 -54 0
-53 -55 0
-54 -55 0
53 54 55 0
c gate 56 50 55 0
50 -56 0
55 -56 0
-50 -55 56 0
c gate 57 -50 -55 0
-50 -57 0
-55 -57 0
50 55 57 0
c gate 58 -56 -57 0
-56 -58 0
-57 -58 0
56 57 58 0
c gate 59 -49 58 0
-49 -59 0
58 -59 0
49 -58 59 0
c gate 60 49 -58 0
49 -60 0
-58 -60 0
-49 58 60 0
c gate 61 -59 -60 0
-59 -61 0
-60 -61 0
59 60 61 0
c gate 62 48 61 0
48 -62 0
61 -62 0
-48 -61 62 0
c gate 63 -42 -46 0
-42 -63 0
-46 -63 0
42 46 63 0
c gate 64 -48 -61 0
-48 -64 0
-61 -64 0
48 61 64 0
c gate 65 -62 -64 0
-62 -65 0
-64 -65 0
62 64 65 0
c gate 66 -63 65 0
-63 -66 0
65 -66 0
63 -65 66 0
c gate 67 -62 -66 0
-62 -67 0
-66 -67 0
62 66 67 0
c gate 68 -54 -56 0
-54 -68 0
-56 -68 0
54 56 68 0
c gate 69 10 18 0
10 -69 0
18 -69 0
-10 -18 69 0
c gate 70 9 19 0
9 -70 0
19 -70 0
-9 -19 70 0
c gate 71 69 -70 0
69 -71 0
-70 -71 0
-69 70 71 0
c gate 72 -69 70 0
-69 -72 0
70 -72 0
69 -70 72 0
c gate 73 -71 -72 0
-71 -73 0
-72 -73 0
71 72 73 0
c gate 74 -68 -73 0
-68 -74 0
-73 -74 0
68 73 74 0
c gate 75 68 73 0
68 -75 0
73 -75 0
-68 -73 75 0
c gate 76 -74 -75 0
-74 -76 0
-75 -76 0
74 75 76 0
c gate 77 59 76 0
59 -77 0
76 -77 0
-59 -76 77 0
c gate 78 -59 -76 0
-59 -78 0
-76 -78 0
59 76 78 0
c gate 79 -77 -78 0
-77 -79 0
-78 -79 0
77 78 79 0
c gate 80 -67 79 0
-67 -80 0
79 -80 0
67 -79 80 0
c gate 81 8 20 0
8 -81 0
20 -81 0
-8 -20 81 0
c gate 82 67 -79 0
67 -82 0
-79 -82 0
-67 79 82 0
c gate 83 -80 -82 0
-80 -83 0
-82 -83 0
80 82 83 0
c gate 84 81 83 0
81 -84 0
83 -84 0
-81 -83 84 0
c gate 85 -80 -84 0
-80 -85 0
-84 -85 0
80 84 85 0
c gate 86 9 20 0
9 -86 0
20 -86 0
-9 -20 86 0
c gate 87 10 19 0
10 -87 0
19 -87 0
-10 -19 87 0
c gate 88 -51 -74 0
-51 -88 0
-74 -88 0
51 74 88 0
c gate 89 87 -88 0
87 -89 0
-88 -89 0
-87 88 89 0
c gate 90 -74 -87 0
-74 -90 0
-87 -90 0
74 87 90 0
c gate 91 -89 -90 0
-89 -91 0
-90 -91 0
89 90 91 0
c gate 92 77 -91 0
77 -92 0
-91 -92 0
-77 91 92 0
c gate 93 -77 91 0
-77 -93 0
91 -93 0
77 -91 93 0
c gate 94 -92 -93 0
-92 -94 0
-93 -94 0
92 93 94 0
c gate 95 86 -94 0
86 -95 0
-94 -95 0
-86 94 95 0
c gate 96 -86 94 0
-86 -96 0
94 -96 0
86 -94 96 0
c gate 97 -95 -96 0
-95 -97 0
-96 -97 0
95 96 97 0
c gate 98 85 -97 0
85 -98 0
-97 -98 0
-85 97 98 0
c gate 99 -39 -40 0
-39 -99 0
-40 -99 0
39 40 99 0
c gate 100 -41 -99 0
-41 -100 0
-99 -100 0
41 99 100 0
c gate 101 7 17 0
7 -101 0
17 -101 0
-7 -17 101 0
c gate 102 6 18 0
6 -102 0
18 -102 0
-6 -18 102 0
c gate 103 101 102 0
101 -103 0
102 -103 0
-101 -102 103 0
c gate 104 5 19 0
5 -104 0
19 -104 0
-5 -19 104 0
c gate 105 -101 -102 0
-101 -105 0
-102 -105 0
101 102 105 0
c gate 106 -103 -105 0
-103 -106 0
-105 -106 0
103 105 106 0
c gate 107 104 106 0
104 -107 0
106 -107 0
-104 -106 107 0
c gate 108 -103 -107 0
-103 -108 0
-107 -108 0
103 107 108 0
c gate 109 -25 -27 0
-25 -109 0
-27 -109 0
25 27 109 0
c gate 110 -28 -109 0
-28 -110 0
-109 -110 0
28 109 110 0
c gate 111 9 15 0
9 -111 0
15 -111 0
-9 -15 111 0
c gate 112 10 14 0
10 -112 0
14 -112 0
-10 -14 112 0
c gate 113 111 112 0
111 -113 0
112 -113 0
-111 -112 113 0
c gate 114 8 16 0
8 -114 0
16 -114 0
-8 -16 114 0
c gate 115 -111 -112 0
-111 -115 0
-112 -115 0
111 112 115 0
c gate 116 -113 -115 0
-113 -116 0
-115 -116 0
113 115 116 0
c gate 117 114 116 0
114 -117 0
116 -117 0
-114 -116 117 0
c gate 118 -113 -117 0
-113 -118 0
-117 -118 0
113 117 118 0
c gate 119 110 -118 0
110 -119 0
-118 -119 0
-110 118 119 0
c gate 120 -110 118 0
-110 -120 0
118 -120 0
110 -118 120 0
c gate 121 -119 -120 0
-119 -121 0
-120 -121 0
119 120 121 0
c gate 122 108 -121 0
108 -122 0
-121 -122 0
-108 121 122 0
c gate 123 -108 121 0
-108 -123 0
121 -123 0
108 -121 123 0
c gate 124 -122 -123 0
-122 -124 0
-123 -124 0
122 123 124 0
c gate 125 100 124 0
100 -125 0
124 -125 0
-100 -124 125 0
c gate 126 -21 -47 0
-21 -126 0
-47 -126 0
21 47 126 0
c gate 127 -48 -126 0
-48 -127 0
-126 -127 0
48 126 127 0
c gate 128 125 127 0
125 -128 0
127 -128 0
-125 -127 128 0
c gate 129 -119 -123 0
-119 -129 0
-123 -129 0
119 123 129 0
c gate 130 -125 -127 0
-125 -130 0
-127 -130 0
125 127 130 0
c gate 131 -128 -130 0
-128 -131 0
-130 -131 0
128 130 131 0
c gate 132 -129 131 0
-129 -132 0
131 -132 0
129 -131 132 0
c gate 133 -128 -132 0
-128 -133 0
-132 -133 0
128 132 133 0
c gate 134 63 -65 0
63 -134 0
-65 -134 0
-63 65 134 0
c gate 135 -66 -134 0
-66 -135 0
-134 -135 0
66 134 135 0
c gate 136 -133 135 0
-133 -136 0
135 -136 0
133 -135 136 0
c gate 137 7 20 0
7 -137 0
20 -137 0
-7 -20 137 0
c gate 138 133 -135 0
133 -138 0
-135 -138 0
-133 135 138 0
c gate 139 -136 -138 0
-136 -139 0
-138 -139 0
136 138 139 0
c gate 140 137 139 0
137 -140 0
139 -140 0
-137 -139 140 0
c gate 141 -136 -140 0
-136 -141 0
-140 -141 0
136 140 141 0
c gate 142 -81 -83 0
-81 -142 0
-83 -142 0
81 83 142 0
c gate 143 -84 -142 0
-84 -143 0
-142 -143 0
84 142 143 0
c gate 144 141 -143 0
141 -144 0
-143 -144 0
-141 143 144 0
c gate 145 10 12 0
10 -145 0
12 -145 0
-10 -12 145 0
c gate 146 9 13 0
9 -146 0
13 -146 0
-9 -13 146 0
c gate 147 -145 -146 0
-145 -147 0
-146 -147 0
145 146 147 0
c gate 148 145 146 0
145 -148 0
146 -148 0
-145 -146 148 0
c gate 149 -147 -148 0
-147 -149 0
-148 -149 0
147 148 149 0
c gate 150 9 12 0
9 -150 0
12 -150 0
-9 -12 150 0
c gate 151 10 11 0
10 -151 0
11 -151 0
-10 -11 151 0
c gate 152 150 151 0
150 -152 0
151 -152 0
-150 -151 152 0
c gate 153 8 13 0
8 -153 0
13 -153 0
-8 -13 153 0
c gate 154 -150 -151 0
-150 -154 0
-151 -154 0
150 151 154 0
c gate 155 -152 -154 0
-152 -155 0
-154 -155 0
152 154 155 0
c gate 156 153 155 0
153 -156 0
155 -156 0
-153 -155 156 0
c gate 157 -152 -156 0
-152 -157 0
-156 -157 0
152 156 157 0
c gate 158 149 -157 0
149 -158 0
-157 -158 0
-149 157 158 0
c gate 159 6 16 0
6 -159 0
16 -159 0
-6 -16 159 0
c gate 160 7 15 0
7 -160 0
15 -160 0
-7 -15 160 0
c gate 161 8 14 0
8 -161 0
14 -161 0
-8 -14 161 0
c gate 162 -160 -161 0
-160 -162 0
-161 -162 0
160 161 162 0
c gate 163 160 161 0
160 -163 0
161 -163 0
-160 -161 163 0
c gate 164 -162 -163 0
-162 -164 0
-163 -164 0
162 163 164 0
c gate 165 -159 -164 0
-159 -165 0
-164 -165 0
159 164 165 0
c gate 166 159 164 0
159 -166 0
164 -166 0
-159 -164 166 0
c gate 167 -165 -166 0
-165 -167 0
-166 -167 0
165 166 167 0
c gate 168 -149 157 0
-149 -168 0
157 -168 0
149 -157 168 0
c gate 169 -158 -168 0
-158 -169 0
-168 -169 0
158 168 169 0
c gate 170 167 169 0
167 -170 0
169 -170 0
-167 -169 170 0
c gate 171 -158 -170 0
-158 -171 0
-170 -171 0
158 170 171 0
c gate 172 7 16 0
7 -172 0
16 -172 0
-7 -16 172 0
c gate 173 9 14 0
9 -173 0
14 -173 0
-9 -14 173 0
c gate 174 8 15 0
8 -174 0
15 -174 0
-8 -15 174 0
c gate 175 -173 -174 0
-173 -175 0
-174 -175 0
173 174 175 0
c gate 176 173 174 0
173 -176 0
174 -176 0
-173 -174 176 0
c gate 177 -175 -176 0
-175 -177 0
-176 -177 0
175 176 177 0
c gate 178 -172 -177 0
-172 -178 0
-177 -178 0
172 177 178 0
c gate 179 172 177 0
172 -179 0
177 -179 0
-172 -177 179 0
c gate 180 -178 -179 0
-178 -180 0
-179 -180 0
178 179 180 0
c gate 181 10 13 0
10 -181 0
13 -181 0
-10 -13 181 0
c gate 182 -150 181 0
-150 -182 0
181 -182 0
150 -181 182 0
c gate 183 180 182 0
180 -183 0
182 -183 0
-180 -182 183 0
c gate 184 -180 -182 0
-180 -184 0
-182 -184 0
180 182 184 0
c gate 185 -183 -184 0
-183 -185 0
-184 -185 0
183 184 185 0
c gate 186 -171 185 0
-171 -186 0
185 -186 0
171 -185 186 0
c gate 187 4 18 0
4 -187 0
18 -187 0
-4 -18 187 0
c gate 188 5 17 0
5 -188 0
17 -188 0
-5 -17 188 0
c gate 189 187 188 0
187 -189 0
188 -189 0
-187 -188 189 0
c gate 190 3 19 0
3 -190 0
19 -190 0
-3 -19 190 0
c gate 191 -187 -188 0
-187 -191 0
-188 -191 0
187 188 191 0
c gate 192 -189 -191 0
-189 -192 0
-191 -192 0
189 191 192 0
c gate 193 190 192 0
190 -193 0
192 -193 0
-190 -192 193 0
c gate 194 -189 -193 0
-189 -194 0
-193 -194 0
189 193 194 0
c gate 195 4 19 0
4 -195 0
19 -195 0
-4 -19 195 0
c gate 196 6 17 0
6 -196 0
17 -196 0
-6 -17 196 0
c gate 197 5 18 0
5 -197 0
18 -197 0
-5 -18 197 0
c gate 198 -196 -197 0
-196 -198 0
-197 -198 0
196 197 198 0
c gate 199 196 197 0
196 -199 0
197 -199 0
-196 -197 199 0
c gate 200 -198 -199 0
-198 -200 0
-199 -200 0
198 199 200 0
c gate 201 195 200 0
195 -201 0
200 -201 0
-195 -200 201 0
c gate 202 -195 -200 0
-195 -202 0
-200 -202 0
195 200 202 0
c gate 203 -201 -202 0
-201 -203 0
-202 -203 0
201 202 203 0
c gate 204 -163 -166 0
-163 -204 0
-166 -204 0
163 166 204 0
c gate 205 203 -204 0
203 -205 0
-204 -205 0
-203 204 205 0
c gate 206 -203 204 0
-203 -206 0
204 -206 0
203 -204 206 0
c gate 207 -205 -206 0
-205 -207 0
-206 -207 0
205 206 207 0
c gate 208 194 -207 0
194 -208 0
-207 -208 0
-194 207 208 0
c gate 209 -194 207 0
-194 -209 0
207 -209 0
194 -207 209 0
c gate 210 -208 -209 0
-208 -210 0
-209 -210 0
208 209 210 0
c gate 211 171 -185 0
171 -211 0
-185 -211 0
-171 185 211 0
c gate 212 -186 -211 0
-186 -212 0
-211 -212 0
186 211 212 0
c gate 213 210 212 0
210 -213 0
212 -213 0
-210 -212 213 0
c gate 214 -186 -213 0
-186 -214 0
-213 -214 0
186 213 214 0
c gate 215 -199 -201 0
-199 -215 0
-201 -215 0
199 201 215 0
c gate 216 -104 -106 0
-104 -216 0
-106 -216 0
104 106 216 0
c gate 217 -107 -216 0
-107 -217 0
-216 -217 0
107 216 217 0
c gate 218 -176 -179 0
-176 -218 0
-179 -218 0
176 179 218 0
c gate 219 217 -218 0
217 -219 0
-218 -219 0
-217 218 219 0
c gate 220 -217 218 0
-217 -220 0
218 -220 0
217 -218 220 0
c gate 221 -219 -220 0
-219 -221 0
-220 -221 0
219 220 221 0
c gate 222 215 -221 0
215 -222 0
-221 -222 0
-215 221 222 0
c gate 223 -215 221 0
-215 -223 0
221 -223 0
215 -221 223 0
c gate 224 -222 -223 0
-222 -224 0
-223 -224 0
222 223 224 0
c gate 225 -148 -183 0
-148 -225 0
-183 -225 0
148 183 225 0
c gate 226 -114 -116 0
-114 -226 0
-116 -226 0
114 116 226 0
c gate 227 -117 -226 0
-117 -227 0
-226 -227 0
117 226 227 0
c gate 228 -225 227 0
-225 -228 0
227 -228 0
225 -227 228 0
c gate 229 225 -227 0
225 -229 0
-227 -229 0
-225 227 229 0
c gate 230 -228 -229 0
-228 -230 0
-229 -230 0
228 229 230 0
c gate 231 224 230 0
224 -231 0
230 -231 0
-224 -230 231 0
c gate 232 -224 -230 0
-224 -232 0
-230 -232 0
224 230 232 0
c gate 233 -231 -232 0
-231 -233 0
-232 -233 0
231 232 233 0
c gate 234 -214 233 0
-214 -234 0
233 -234 0
214 -233 234 0
c gate 235 -205 -209 0
-205 -235 0
-209 -235 0
205 209 235 0
c gate 236 214 -233 0
214 -236 0
-233 -236 0
-214 233 236 0
c gate 237 -234 -236 0
-234 -237 0
-236 -237 0
234 236 237 0
c gate 238 -235 237 0
-235 -238 0
237 -238 0
235 -237 238 0
c gate 239 -234 -238 0
-234 -239 0
-238 -239 0
234 238 239 0
c gate 240 -219 -223 0
-219 -240 0
-223 -240 0
219 223 240 0
c gate 241 -228 -231 0
-228 -241 0
-231 -241 0
228 231 241 0
c gate 242 -100 -124 0
-100 -242 0
-124 -242 0
100 124 242 0
c gate 243 -125 -242 0
-125 -243 0
-242 -243 0
125 242 243 0
c gate 244 -241 243 0
-241 -244 0
243 -244 0
241 -243 244 0
c gate 245 241 -243 0
241 -245 0
-243 -245 0
-241 243 245 0
c gate 246 -244 -245 0
-244 -246 0
-245 -246 0
244 245 246 0
c gate 247 -240 246 0
-240 -247 0
246 -247 0
240 -246 247 0
c gate 248 240 -246 0
240 -248 0
-246 -248 0
-240 246 248 0
c gate 249 -247 -248 0
-247 -249 0
-248 -249 0
247 248 249 0
c gate 250 -239 249 0
-239 -250 0
249 -250 0
239 -249 250 0
c gate 251 5 20 0
5 -251 0
20 -251 0
-5 -20 251 0
c gate 252 239 -249 0
239 -252 0
-249 -252 0
-239 249 252 0
c gate 253 -250 -252 0
-250 -253 0
-252 -253 0
250 252 253 0
c gate 254 251 253 0
251 -254 0
253 -254 0
-251 -253 254 0
c gate 255 -250 -254 0
-250 -255 0
-254 -255 0
250 254 255 0
c gate 256 6 20 0
6 -256 0
20 -256 0
-6 -20 256 0
c gate 257 -244 -247 0
-244 -257 0
-247 -257 0
244 247 257 0
c gate 258 129 -131 0
129 -258 0
-131 -258 0
-129 131 258 0
c gate 259 -132 -258 0
-132 -259 0
-258 -259 0
132 258 259 0
c gate 260 -257 259 0
-257 -260 0
259 -260 0
257 -259 260 0
c gate 261 257 -259 0
257 -261 0
-259 -261 0
-257 259 261 0
c gate 262 -260 -261 0
-260 -262 0
-261 -262 0
260 261 262 0
c gate 263 256 262 0
256 -263 0
262 -263 0
-256 -262 263 0
c gate 264 -256 -262 0
-256 -264 0
-262 -264 0
256 262 264 0
c gate 265 -263 -264 0
-263 -265 0
-264 -265 0
263 264 265 0
c gate 266 -255 265 0
-255 -266 0
265 -266 0
255 -265 266 0
c gate 267 -260 -263 0
-260 -267 0
-263 -267 0
260 263 267 0
c gate 268 -137 -139 0
-137 -268 0
-139 -268 0
137 139 268 0
c gate 269 -140 -268 0
-140 -269 0
-268 -269 0
140 268 269 0
c gate 270 -267 269 0
-267 -270 0
269 -270 0
267 -269 270 0
c gate 271 -266 -270 0
-266 -271 0
-270 -271 0
266 270 271 0
c gate 272 267 -269 0
267 -272 0
-269 -272 0
-267 269 272 0
c gate 273 -271 -272 0
-271 -273 0
-272 -273 0
271 272 273 0
c gate 274 9 11 0
9 -274 0
11 -274 0
-9 -11 274 0
c gate 275 8 12 0
8 -275 0
12 -275 0
-8 -12 275 0
c gate 276 274 275 0
274 -276 0
275 -276 0
-274 -275 276 0
c gate 277 7 13 0
7 -277 0
13 -277 0
-7 -13 277 0
c gate 278 -274 -275 0
-274 -278 0
-275 -278 0
274 275 278 0
c gate 279 -276 -278 0
-276 -279 0
-278 -279 0
276 278 279 0
c gate 280 277 279 0
277 -280 0
279 -280 0
-277 -279 280 0
c gate 281 -276 -280 0
-276 -281 0
-280 -281 0
276 280 281 0
c gate 282 -153 -155 0
-153 -282 0
-155 -282 0
153 155 282 0
c gate 283 -156 -282 0
-156 -283 0
-282 -283 0
156 282 283 0
c gate 284 -281 283 0
-281 -284 0
283 -284 0
281 -283 284 0
c gate 285 5 16 0
5 -285 0
16 -285 0
-5 -16 285 0
c gate 286 7 14 0
7 -286 0
14 -286 0
-7 -14 286 0
c gate 287 6 15 0
6 -287 0
15 -287 0
-6 -15 287 0
c gate 288 -286 -287 0
-286 -288 0
-287 -288 0
286 287 288 0
c gate 289 286 287 0
286 -289 0
287 -289 0
-286 -287 289 0
c gate 290 -288 -289 0
-288 -290 0
-289 -290 0
288 289 290 0
c gate 291 -285 -290 0
-285 -291 0
-290 -291 0
285 290 291 0
c gate 292 285 290 0
285 -292 0
290 -292 0
-285 -290 292 0
c gate 293 -291 -292 0
-291 -293 0
-292 -293 0
291 292 293 0
c gate 294 281 -283 0
281 -294 0
-283 -294 0
-281 283 294 0
c gate 295 -284 -294 0
-284 -295 0
-294 -295 0
284 294 295 0
c gate 296 293 295 0
293 -296 0
295 -296 0
-293 -295 296 0
c gate 297 -284 -296 0
-284 -297 0
-296 -297 0
284 296 297 0
c gate 298 -167 -169 0
-167 -298 0
-169 -298 0
167 169 298 0
c gate 299 -170 -298 0
-170 -299 0
-298 -299 0
170 298 299 0
c gate 300 -297 299 0
-297 -300 0
299 -300 0
297 -299 300 0
c gate 301 4 17 0
4 -301 0
17 -301 0
-4 -17 301 0
c gate 302 3 18 0
3 -302 0
18 -302 0
-3 -18 302 0
c gate 303 301 302 0
301 -303 0
302 -303 0
-301 -302 303 0
c gate 304 2 19 0
2 -304 0
19 -304 0
-2 -19 304 0
c gate 305 -301 -302 0
-301 -305 0
-302 -305 0
301 302 305 0
c gate 306 -303 -305 0
-303 -306 0
-305 -306 0
303 305 306 0
c gate 307 304 306 0
304 -307 0
306 -307 0
-304 -306 307 0
c gate 308 -303 -307 0
-303 -308 0
-307 -308 0
303 307 308 0
c gate 309 -190 -192 0
-190 -309 0
-192 -309 0
190 192 309 0
c gate 310 -193 -309 0
-193 -310 0
-309 -310 0
193 309 310 0
c gate 311 -289 -292 0
-289 -311 0
-292 -311 0
289 292 311 0
c gate 312 310 -311 0
310 -312 0
-311 -312 0
-310 311 312 0
c gate 313 -310 311 0
-310 -313 0
311 -313 0
310 -311 313 0
c gate 314 -312 -313 0
-312 -314 0
-313 -314 0
312 313 314 0
c gate 315 308 -314 0
308 -315 0
-314 -315 0
-308 314 315 0
c gate 316 -308 314 0
-308 -316 0
314 -316 0
308 -314 316 0
c gate 317 -315 -316 0
-315 -317 0
-316 -317 0
315 316 317 0
c gate 318 297 -299 0
297 -318 0
-299 -318 0
-297 299 318 0
c gate 319 -300 -318 0
-300 -319 0
-318 -319 0
300 318 319 0
c gate 320 317 319 0
317 -320 0
319 -320 0
-317 -319 320 0
c gate 321 -300 -320 0
-300 -321 0
-320 -321 0
300 320 321 0
c gate 322 -210 -212 0
-210 -322 0
-212 -322 0
210 212 322 0
c gate 323 -213 -322 0
-213 -323 0
-322 -323 0
213 322 323 0
c gate 324 -321 323 0
-321 -324 0
323 -324 0
321 -323 324 0
c gate 325 -312 -316 0
-312 -325 0
-316 -325 0
312 316 325 0
c gate 326 321 -323 0
321 -326 0
-323 -326 0
-321 323 326 0
c gate 327 -324 -326 0
-324 -327 0
-326 -327 0
324 326 327 0
c gate 328 -325 327 0
-325 -328 0
327 -328 0
325 -327 328 0
c gate 329 -324 -328 0
-324 -329 0
-328 -329 0
324 328 329 0
c gate 330 235 -237 0
235 -330 0
-237 -330 0
-235 237 330 0
c gate 331 -238 -330 0
-238 -331 0
-330 -331 0
238 330 331 0
c gate 332 -329 331 0
-329 -332 0
331 -332 0
329 -331 332 0
c gate 333 4 20 0
4 -333 0
20 -333 0
-4 -20 333 0
c gate 334 329 -331 0
329 -334 0
-331 -334 0
-329 331 334 0
c gate 335 -332 -334 0
-332 -335 0
-334 -335 0
332 334 335 0
c gate 336 333 335 0
333 -336 0
335 -336 0
-333 -335 336 0
c gate 337 -332 -336 0
-332 -337 0
-336 -337 0
332 336 337 0
c gate 338 -251 -253 0
-251 -338 0
-253 -338 0
251 253 338 0
c gate 339 -254 -338 0
-254 -339 0
-338 -339 0
254 338 339 0
c gate 340 -337 339 0
-337 -340 0
339 -340 0
337 -339 340 0
c gate 341 8 11 0
8 -341 0
11 -341 0
-8 -11 341 0
c gate 342 7 12 0
7 -342 0
12 -342 0
-7 -12 342 0
c gate 343 341 342 0
341 -343 0
342 -343 0
-341 -342 343 0
c gate 344 6 13 0
6 -344 0
13 -344 0
-6 -13 344 0
c gate 345 -341 -342 0
-341 -345 0
-342 -345 0
341 342 345 0
c gate 346 -343 -345 0
-343 -346 0
-345 -346 0
343 345 346 0
c gate 347 344 346 0
344 -347 0
346 -347 0
-344 -346 347 0
c gate 348 -343 -347 0
-343 -348 0
-347 -348 0
343 347 348 0
c gate 349 -277 -279 0
-277 -349 0
-279 -349 0
277 279 349 0
c gate 350 -280 -349 0
-280 -350 0
-349 -350 0
280 349 350 0
c gate 351 -348 350 0
-348 -351 0
350 -351 0
348 -350 351 0
c gate 352 4 16 0
4 -352 0
16 -352 0
-4 -16 352 0
c gate 353 6 14 0
6 -353 0
14 -353 0
-6 -14 353 0
c gate 354 5 15 0
5 -354 0
15 -354 0
-5 -15 354 0
c gate 355 -353 -354 0
-353 -355 0
-354 -355 0
353 354 355 0
c gate 356 353 354 0
353 -356 0
354 -356 0
-353 -354 356 0
c gate 357 -355 -356 0
-355 -357 0
-356 -357 0
355 356 357 0
c gate 358 -352 -357 0
-352 -358 0
-357 -358 0
352 357 358 0
c gate 359 352 357 0
352 -359 0
357 -359 0
-352 -357 359 0
c gate 360 -358 -359 0
-358 -360 0
-359 -360 0
358 359 360 0
c gate 361 348 -350 0
348 -361 0
-350 -361 0
-348 350 361 0
c gate 362 -351 -361 0
-351 -362 0
-361 -362 0
351 361 362 0
c gate 363 360 362 0
360 -363 0
362 -363 0
-360 -362 363 0
c gate 364 -351 -363 0
-351 -364 0
-363 -364 0
351 363 364 0
c gate 365 -293 -295 0
-293 -365 0
-295 -365 0
293 295 365 0
c gate 366 -296 -365 0
-296 -366 0
-365 -366 0
296 365 366 0
c gate 367 -364 366 0
-364 -367 0
366 -367 0
364 -366 367 0
c gate 368 3 17 0
3 -368 0
17 -368 0
-3 -17 368 0
c gate 369 2 18 0
2 -369 0
18 -369 0
-2 -18 369 0
c gate 370 368 369 0
368 -370 0
369 -370 0
-368 -369 370 0
c gate 371 1 19 0
1 -371 0
19 -371 0
-1 -19 371 0
c gate 372 -368 -369 0
-368 -372 0
-369 -372 0
368 369 372 0
c gate 373 -370 -372 0
-370 -373 0
-372 -373 0
370 372 373 0
c gate 374 371 373 0
371 -374 0
373 -374 0
-371 -373 374 0
c gate 375 -370 -374 0
-370 -375 0
-374 -375 0
370 374 375 0
c gate 376 -304 -306 0
-304 -376 0
-306 -376 0
304 306 376 0
c gate 377 -307 -376 0
-307 -377 0
-376 -377 0
307 376 377 0
c gate 378 -356 -359 0
-356 -378 0
-359 -378 0
356 359 378 0
c gate 379 377 -378 0
377 -379 0
-378 -379 0
-377 378 379 0
c gate 380 -377 378 0
-377 -380 0
378 -380 0
377 -378 380 0
c gate 381 -379 -380 0
-379 -381 0
-380 -381 0
379 380 381 0
c gate 382 375 -381 0
375 -382 0
-381 -382 0
-375 381 382 0
c gate 383 -375 381 0
-375 -383 0
381 -383 0
375 -381 383 0
c gate 384 -382 -383 0
-382 -384 0
-383 -384 0
382 383 384 0
c gate 385 364 -366 0
364 -385 0
-366 -385 0
-364 366 385 0
c gate 386 -367 -385 0
-367 -386 0
-385 -386 0
367 385 386 0
c gate 387 384 386 0
384 -387 0
386 -387 0
-384 -386 387 0
c gate 388 -367 -387 0
-367 -388 0
-387 -388 0
367 387 388 0
c gate 389 -317 -319 0
-317 -389 0
-319 -389 0
317 319 389 0
c gate 390 -320 -389 0
-320 -390 0
-389 -390 0
320 389 390 0
c gate 391 -388 390 0
-388 -391 0
390 -391 0
388 -390 391 0
c gate 392 -379 -383 0
-379 -392 0
-383 -392 0
379 383 392 0
c gate 393 388 -390 0
388 -393 0
-390 -393 0
-388 390 393 0
c gate 394 -391 -393 0
-391 -394 0
-393 -394 0
391 393 394 0
c gate 395 -392 394 0
-392 -395 0
394 -395 0
392 -394 395 0
c gate 396 -391 -395 0
-391 -396 0
-395 -396 0
391 395 396 0
c gate 397 325 -327 0
325 -397 0
-327 -397 0
-325 327 397 0
c gate 398 -328 -397 0
-328 -398 0
-397 -398 0
328 397 398 0
c gate 399 -396 398 0
-396 -399 0
398 -399 0
396 -398 399 0
c gate 400 3 20 0
3 -400 0
20 -400 0
-3 -20 400 0
c gate 401 396 -398 0
396 -401 0
-398 -401 0
-396 398 401 0
c gate 402 -399 -401 0
-399 -402 0
-401 -402 0
399 401 402 0
c gate 403 400 402 0
400 -403 0
402 -403 0
-400 -402 403 0
c gate 404 -399 -403 0
-399 -404 0
-403 -404 0
399 403 404 0
c gate 405 -333 -335 0
-333 -405 0
-335 -405 0
333 335 405 0
c gate 406 -336 -405 0
-336 -406 0
-405 -406 0
336 405 406 0
c gate 407 -404 406 0
-404 -407 0
406 -407 0
404 -406 407 0
c gate 408 -340 -407 0
-340 -408 0
-407 -408 0
340 407 408 0
c gate 409 337 -339 0
337 -409 0
-339 -409 0
-337 339 409 0
c gate 410 255 -265 0
255 -410 0
-265 -410 0
-255 265 410 0
c gate 411 -272 -410 0
-272 -411 0
-410 -411 0
272 410 411 0
c gate 412 -409 411 0
-409 -412 0
411 -412 0
409 -411 412 0
c gate 413 271 412 0
271 -413 0
412 -413 0
-271 -412 413 0
c gate 414 -408 413 0
-408 -414 0
413 -414 0
408 -413 414 0
c gate 415 -273 -414 0
-273 -415 0
-414 -415 0
273 414 415 0
c gate 416 -144 -415 0
-144 -416 0
-415 -416 0
144 415 416 0
c gate 417 -85 97 0
-85 -417 0
97 -417 0
85 -97 417 0
c gate 418 -141 143 0
-141 -418 0
143 -418 0
141 -143 418 0
c gate 419 -417 -418 0
-417 -419 0
-418 -419 0
417 418 419 0
c gate 420 -416 419 0
-416 -420 0
419 -420 0
416 -419 420 0
c gate 421 5 11 0
5 -421 0
11 -421 0
-5 -11 421 0
c gate 422 4 12 0
4 -422 0
12 -422 0
-4 -12 422 0
c gate 423 421 422 0
421 -423 0
422 -423 0
-421 -422 423 0
c gate 424 -421 -422 0
-421 -424 0
-422 -424 0
421 422 424 0
c gate 425 -423 -424 0
-423 -425 0
-424 -425 0
423 424 425 0
c gate 426 3 13 0
3 -426 0
13 -426 0
-3 -13 426 0
c gate 427 425 426 0
425 -427 0
426 -427 0
-425 -426 427 0
c gate 428 -423 -427 0
-423 -428 0
-427 -428 0
423 427 428 0
c gate 429 4 13 0
4 -429 0
13 -429 0
-4 -13 429 0
c gate 430 5 12 0
5 -430 0
12 -430 0
-5 -12 430 0
c gate 431 6 11 0
6 -431 0
11 -431 0
-6 -11 431 0
c gate 432 -430 -431 0
-430 -432 0
-431 -432 0
430 431 432 0
c gate 433 430 431 0
430 -433 0
431 -433 0
-430 -431 433 0
c gate 434 -432 -433 0
-432 -434 0
-433 -434 0
432 433 434 0
c gate 435 429 434 0
429 -435 0
434 -435 0
-429 -434 435 0
c gate 436 -429 -434 0
-429 -436 0
-434 -436 0
429 434 436 0
c gate 437 -435 -436 0
-435 -437 0
-436 -437 0
435 436 437 0
c gate 438 -428 437 0
-428 -438 0
437 -438 0
428 -437 438 0
c gate 439 1 16 0
1 -439 0
16 -439 0
-1 -16 439 0
c gate 440 3 14 0
3 -440 0
14 -440 0
-3 -14 440 0
c gate 441 2 15 0
2 -441 0
15 -441 0
-2 -15 441 0
c gate 442 -440 -441 0
-440 -442 0
-441 -442 0
440 441 442 0
c gate 443 440 441 0
440 -443 0
441 -443 0
-440 -441 443 0
c gate 444 -442 -443 0
-442 -444 0
-443 -444 0
442 443 444 0
c gate 445 -439 -444 0
-439 -445 0
-444 -445 0
439 444 445 0
c gate 446 439 444 0
439 -446 0
444 -446 0
-439 -444 446 0
c gate 447 -445 -446 0
-445 -447 0
-446 -447 0
445 446 447 0
c gate 448 428 -437 0
428 -448 0
-437 -448 0
-428 437 448 0
c gate 449 -438 -448 0
-438 -449 0
-448 -449 0
438 448 449 0
c gate 450 447 449 0
447 -450 0
449 -450 0
-447 -449 450 0
c gate 451 -438 -450 0
-438 -451 0
-450 -451 0
438 450 451 0
c gate 452 -433 -435 0
-433 -452 0
-435 -452 0
433 435 452 0
c gate 453 7 11 0
7 -453 0
11 -453 0
-7 -11 453 0
c gate 454 6 12 0
6 -454 0
12 -454 0
-6 -12 454 0
c gate 455 -453 -454 0
-453 -455 0
-454 -455 0
453 454 455 0
c gate 456 453 454 0
453 -456 0
454 -456 0
-453 -454 456 0
c gate 457 -455 -456 0
-455 -457 0
-456 -457 0
455 456 457 0
c gate 458 5 13 0
5 -458 0
13 -458 0
-5 -13 458 0
c gate 459 457 458 0
457 -459 0
458 -459 0
-457 -458 459 0
c gate 460 -457 -458 0
-457 -460 0
-458 -460 0
457 458 460 0
c gate 461 -459 -460 0
-459 -461 0
-460 -461 0
459 460 461 0
c gate 462 -452 461 0
-452 -462 0
461 -462 0
452 -461 462 0
c gate 463 452 -461 0
452 -463 0
-461 -463 0
-452 461 463 0
c gate 464 -462 -463 0
-462 -464 0
-463 -464 0
462 463 464 0
c gate 465 2 16 0
2 -465 0
16 -465 0
-2 -16 465 0
c gate 466 3 15 0
3 -466 0
15 -466 0
-3 -15 466 0
c gate 467 4 14 0
4 -467 0
14 -467 0
-4 -14 467 0
c gate 468 -466 -467 0
-466 -468 0
-467 -468 0
466 467 468 0
c gate 469 466 467 0
466 -469 0
467 -469 0
-466 -467 469 0
c gate 470 -468 -469 0
-468 -470 0
-469 -470 0
468 469 470 0
c gate 471 465 470 0
465 -471 0
470 -471 0
-465 -470 471 0
c gate 472 -465 -470 0
-465 -472 0
-470 -472 0
465 470 472 0
c gate 473 -471 -472 0
-471 -473 0
-472 -473 0
471 472 473 0
c gate 474 464 473 0
464 -474 0
473 -474 0
-464 -473 474 0
c gate 475 -464 -473 0
-464 -475 0
-473 -475 0
464 473 475 0
c gate 476 -474 -475 0
-474 -476 0
-475 -476 0
474 475 476 0
c gate 477 -451 476 0
-451 -477 0
476 -477 0
451 -476 477 0
c gate 478 451 -476 0
451 -478 0
-476 -478 0
-451 476 478 0
c gate 479 -477 -478 0
-477 -479 0
-478 -479 0
477 478 479 0
c gate 480 1 17 0
1 -480 0
17 -480 0
-1 -17 480 0
c gate 481 -443 -446 0
-443 -481 0
-446 -481 0
443 446 481 0
c gate 482 480 -481 0
480 -482 0
-481 -482 0
-480 481 482 0
c gate 483 -480 481 0
-480 -483 0
481 -483 0
480 -481 483 0
c gate 484 -482 -483 0
-482 -484 0
-483 -484 0
482 483 484 0
c gate 485 479 484 0
479 -485 0
484 -485 0
-479 -484 485 0
c gate 486 -477 -485 0
-477 -486 0
-485 -486 0
477 485 486 0
c gate 487 2 17 0
2 -487 0
17 -487 0
-2 -17 487 0
c gate 488 1 18 0
1 -488 0
18 -488 0
-1 -18 488 0
c gate 489 -487 -488 0
-487 -489 0
-488 -489 0
487 488 489 0
c gate 490 487 488 0
487 -490 0
488 -490 0
-487 -488 490 0
c gate 491 -489 -490 0
-489 -491 0
-490 -491 0
489 490 491 0
c gate 492 -469 -471 0
-469 -492 0
-471 -492 0
469 471 492 0
c gate 493 -491 492 0
-491 -493 0
492 -493 0
491 -492 493 0
c gate 494 491 -492 0
491 -494 0
-492 -494 0
-491 492 494 0
c gate 495 -493 -494 0
-493 -495 0
-494 -495 0
493 494 495 0
c gate 496 -462 -474 0
-462 -496 0
-474 -496 0
462 474 496 0
c gate 497 3 16 0
3 -497 0
16 -497 0
-3 -16 497 0
c gate 498 5 14 0
5 -498 0
14 -498 0
-5 -14 498 0
c gate 499 4 15 0
4 -499 0
15 -499 0
-4 -15 499 0
c gate 500 -498 -499 0
-498 -500 0
-499 -500 0
498 499 500 0
c gate 501 498 499 0
498 -501 0
499 -501 0
-498 -499 501 0
c gate 502 -500 -501 0
-500 -502 0
-501 -502 0
500 501 502 0
c gate 503 -497 -502 0
-497 -503 0
-502 -503 0
497 502 503 0
c gate 504 497 502 0
497 -504 0
502 -504 0
-497 -502 504 0
c gate 505 -503 -504 0
-503 -505 0
-504 -505 0
503 504 505 0
c gate 506 -456 -459 0
-456 -506 0
-459 -506 0
456 459 506 0
c gate 507 -344 -346 0
-344 -507 0
-346 -507 0
344 346 507 0
c gate 508 -347 -507 0
-347 -508 0
-507 -508 0
347 507 508 0
c gate 509 -506 508 0
-506 -509 0
508 -509 0
506 -508 509 0
c gate 510 506 -508 0
506 -510 0
-508 -510 0
-506 508 510 0
c gate 511 -509 -510 0
-509 -511 0
-510 -511 0
509 510 511 0
c gate 512 505 511 0
505 -512 0
511 -512 0
-505 -511 512 0
c gate 513 -505 -511 0
-505 -513 0
-511 -513 0
505 511 513 0
c gate 514 -512 -513 0
-512 -514 0
-513 -514 0
512 513 514 0
c gate 515 -496 514 0
-496 -515 0
514 -515 0
496 -514 515 0
c gate 516 496 -514 0
496 -516 0
-514 -516 0
-496 514 516 0
c gate 517 -515 -516 0
-515 -517 0
-516 -517 0
515 516 517 0
c gate 518 495 517 0
495 -518 0
517 -518 0
-495 -517 518 0
c gate 519 -495 -517 0
-495 -519 0
-517 -519 0
495 517 519 0
c gate 520 -518 -519 0
-518 -520 0
-519 -520 0
518 519 520 0
c gate 521 -486 520 0
-486 -521 0
520 -521 0
486 -520 521 0
c gate 522 486 -520 0
486 -522 0
-520 -522 0
-486 520 522 0
c gate 523 -521 -522 0
-521 -523 0
-522 -523 0
521 522 523 0
c gate 524 482 523 0
482 -524 0
523 -524 0
-482 -523 524 0
c gate 525 -521 -524 0
-521 -525 0
-524 -525 0
521 524 525 0
c gate 526 -515 -518 0
-515 -526 0
-518 -526 0
515 518 526 0
c gate 527 -371 -373 0
-371 -527 0
-373 -527 0
371 373 527 0
c gate 528 -374 -527 0
-374 -528 0
-527 -528 0
374 527 528 0
c gate 529 -501 -504 0
-501 -529 0
-504 -529 0
501 504 529 0
c gate 530 528 -529 0
528 -530 0
-529 -530 0
-528 529 530 0
c gate 531 -528 529 0
-528 -531 0
529 -531 0
528 -529 531 0
c gate 532 -530 -531 0
-530 -532 0
-531 -532 0
530 531 532 0
c gate 533 -490 -532 0
-490 -533 0
-532 -533 0
490 532 533 0
c gate 534 490 532 0
490 -534 0
532 -534 0
-490 -532 534 0
c gate 535 -533 -534 0
-533 -535 0
-534 -535 0
533 534 535 0
c gate 536 -509 -512 0
-509 -536 0
-512 -536 0
509 512 536 0
c gate 537 -360 -362 0
-360 -537 0
-362 -537 0
360 362 537 0
c gate 538 -363 -537 0
-363 -538 0
-537 -538 0
363 537 538 0
c gate 539 -536 538 0
-536 -539 0
538 -539 0
536 -538 539 0
c gate 540 536 -538 0
536 -540 0
-538 -540 0
-536 538 540 0
c gate 541 -539 -540 0
-539 -541 0
-540 -541 0
539 540 541 0
c gate 542 535 541 0
535 -542 0
541 -542 0
-535 -541 542 0
c gate 543 -535 -541 0
-535 -543 0
-541 -543 0
535 541 543 0
c gate 544 -542 -543 0
-542 -544 0
-543 -544 0
542 543 544 0
c gate 545 -526 544 0
-526 -545 0
544 -545 0
526 -544 545 0
c gate 546 526 -544 0
526 -546 0
-544 -546 0
-526 544 546 0
c gate 547 -545 -546 0
-545 -547 0
-546 -547 0
545 546 547 0
c gate 548 494 547 0
494 -548 0
547 -548 0
-494 -547 548 0
c gate 549 -494 -547 0
-494 -549 0
-547 -549 0
494 547 549 0
c gate 550 -548 -549 0
-548 -550 0
-549 -550 0
548 549 550 0
c gate 551 -525 550 0
-525 -551 0
550 -551 0
525 -550 551 0
c gate 552 1 20 0
1 -552 0
20 -552 0
-1 -20 552 0
c gate 553 -545 -548 0
-545 -553 0
-548 -553 0
545 548 553 0
c gate 554 -530 -534 0
-530 -554 0
-534 -554 0
530 534 554 0
c gate 555 -539 -542 0
-539 -555 0
-542 -555 0
539 542 555 0
c gate 556 -384 -386 0
-384 -556 0
-386 -556 0
384 386 556 0
c gate 557 -387 -556 0
-387 -557 0
-556 -557 0
387 556 557 0
c gate 558 -555 557 0
-555 -558 0
557 -558 0
555 -557 558 0
c gate 559 555 -557 0
555 -559 0
-557 -559 0
-555 557 559 0
c gate 560 -558 -559 0
-558 -560 0
-559 -560 0
558 559 560 0
c gate 561 -554 560 0
-554 -561 0
560 -561 0
554 -560 561 0
c gate 562 554 -560 0
554 -562 0
-560 -562 0
-554 560 562 0
c gate 563 -561 -562 0
-561 -563 0
-562 -563 0
561 562 563 0
c gate 564 -553 563 0
-553 -564 0
563 -564 0
553 -563 564 0
c gate 565 553 -563 0
553 -565 0
-563 -565 0
-553 563 565 0
c gate 566 -564 -565 0
-564 -566 0
-565 -566 0
564 565 566 0
c gate 567 552 566 0
552 -567 0
566 -567 0
-552 -566 567 0
c gate 568 -552 -566 0
-552 -568 0
-566 -568 0
552 566 568 0
c gate 569 -567 -568 0
-567 -569 0
-568 -569 0
567 568 569 0
c gate 570 551 569 0
551 -570 0
569 -570 0
-551 -569 570 0
c gate 571 -551 -569 0
-551 -571 0
-569 -571 0
551 569 571 0
c gate 572 -570 -571 0
-570 -572 0
-571 -572 0
570 571 572 0
c gate 573 -558 -561 0
-558 -573 0
-561 -573 0
558 561 573 0
c gate 574 392 -394 0
392 -574 0
-394 -574 0
-392 394 574 0
c gate 575 -395 -574 0
-395 -575 0
-574 -575 0
395 574 575 0
c gate 576 -573 575 0
-573 -576 0
575 -576 0
573 -575 576 0
c gate 577 2 20 0
2 -577 0
20 -577 0
-2 -20 577 0
c gate 578 573 -575 0
573 -578 0
-575 -578 0
-573 575 578 0
c gate 579 -576 -578 0
-576 -579 0
-578 -579 0
576 578 579 0
c gate 580 577 579 0
577 -580 0
579 -580 0
-577 -579 580 0
c gate 581 -576 -580 0
-576 -581 0
-580 -581 0
576 580 581 0
c gate 582 -400 -402 0
-400 -582 0
-402 -582 0
400 402 582 0
c gate 583 -403 -582 0
-403 -583 0
-582 -583 0
403 582 583 0
c gate 584 581 -583 0
581 -584 0
-583 -584 0
-581 583 584 0
c gate 585 -564 -567 0
-564 -585 0
-567 -585 0
564 567 585 0
c gate 586 -577 -579 0
-577 -586 0
-579 -586 0
577 579 586 0
c gate 587 -580 -586 0
-580 -587 0
-586 -587 0
580 586 587 0
c gate 588 585 -587 0
585 -588 0
-587 -588 0
-585 587 588 0
c gate 589 525 -550 0
525 -589 0
-550 -589 0
-525 550 589 0
c gate 590 -482 -523 0
-482 -590 0
-523 -590 0
482 523 590 0
c gate 591 -524 -590 0
-524 -591 0
-590 -591 0
524 590 591 0
c gate 592 -551 591 0
-551 -592 0
591 -592 0
551 -591 592 0
c gate 593 -589 592 0
-589 -593 0
592 -593 0
589 -592 593 0
c gate 594 4 11 0
4 -594 0
11 -594 0
-4 -11 594 0
c gate 595 3 12 0
3 -595 0
12 -595 0
-3 -12 595 0
c gate 596 594 595 0
594 -596 0
595 -596 0
-594 -595 596 0
c gate 597 -594 -595 0
-594 -597 0
-595 -597 0
594 595 597 0
c gate 598 -596 -597 0
-596 -598 0
-597 -598 0
596 597 598 0
c gate 599 2 13 0
2 -599 0
13 -599 0
-2 -13 599 0
c gate 600 598 599 0
598 -600 0
599 -600 0
-598 -599 600 0
c gate 601 -596 -600 0
-596 -601 0
-600 -601 0
596 600 601 0
c gate 602 -425 -426 0
-425 -602 0
-426 -602 0
425 426 602 0
c gate 603 -427 -602 0
-427 -603 0
-602 -603 0
427 602 603 0
c gate 604 -601 603 0
-601 -604 0
603 -604 0
601 -603 604 0
c gate 605 2 14 0
2 -605 0
14 -605 0
-2 -14 605 0
c gate 606 1 15 0
1 -606 0
15 -606 0
-1 -15 606 0
c gate 607 605 606 0
605 -607 0
606 -607 0
-605 -606 607 0
c gate 608 -605 -606 0
-605 -608 0
-606 -608 0
605 606 608 0
c gate 609 -607 -608 0
-607 -609 0
-608 -609 0
607 608 609 0
c gate 610 601 -603 0
601 -610 0
-603 -610 0
-601 603 610 0
c gate 611 -604 -610 0
-604 -611 0
-610 -611 0
604 610 611 0
c gate 612 609 611 0
609 -612 0
611 -612 0
-609 -611 612 0
c gate 613 -604 -612 0
-604 -613 0
-612 -613 0
604 612 613 0
c gate 614 -447 -449 0
-447 -614 0
-449 -614 0
447 449 614 0
c gate 615 -450 -614 0
-450 -615 0
-614 -615 0
450 614 615 0
c gate 616 -613 615 0
-613 -616 0
615 -616 0
613 -615 616 0
c gate 617 613 -615 0
613 -617 0
-615 -617 0
-613 615 617 0
c gate 618 -616 -617 0
-616 -618 0
-617 -618 0
616 617 618 0
c gate 619 607 618 0
607 -619 0
618 -619 0
-607 -618 619 0
c gate 620 -616 -619 0
-616 -620 0
-619 -620 0
616 619 620 0
c gate 621 -479 -484 0
-479 -621 0
-484 -621 0
479 484 621 0
c gate 622 -485 -621 0
-485 -622 0
-621 -622 0
485 621 622 0
c gate 623 -620 622 0
-620 -623 0
622 -623 0
620 -622 623 0
c gate 624 620 -622 0
620 -624 0
-622 -624 0
-620 622 624 0
c gate 625 -607 -618 0
-607 -625 0
-618 -625 0
607 618 625 0
c gate 626 -619 -625 0
-619 -626 0
-625 -626 0
619 625 626 0
c gate 627 -624 626 0
-624 -627 0
626 -627 0
624 -626 627 0
c gate 628 -623 627 0
-623 -628 0
627 -628 0
623 -627 628 0
c gate 629 -598 -599 0
-598 -629 0
-599 -629 0
598 599 629 0
c gate 630 -600 -629 0
-600 -630 0
-629 -630 0
600 629 630 0
c gate 631 3 11 0
3 -631 0
11 -631 0
-3 -11 631 0
c gate 632 2 12 0
2 -632 0
12 -632 0
-2 -12 632 0
c gate 633 631 632 0
631 -633 0
632 -633 0
-631 -632 633 0
c gate 634 -631 -632 0
-631 -634 0
-632 -634 0
631 632 634 0
c gate 635 1 13 0
1 -635 0
13 -635 0
-1 -13 635 0
c gate 636 -634 635 0
-634 -636 0
635 -636 0
634 -635 636 0
c gate 637 -633 -636 0
-633 -637 0
-636 -637 0
633 636 637 0
c gate 638 630 -637 0
630 -638 0
-637 -638 0
-630 637 638 0
c gate 639 1 14 0
1 -639 0
14 -639 0
-1 -14 639 0
c gate 640 -630 637 0
-630 -640 0
637 -640 0
630 -637 640 0
c gate 641 -638 -640 0
-638 -641 0
-640 -641 0
638 640 641 0
c gate 642 639 641 0
639 -642 0
641 -642 0
-639 -641 642 0
c gate 643 -638 -642 0
-638 -643 0
-642 -643 0
638 642 643 0
c gate 644 -609 -611 0
-609 -644 0
-611 -644 0
609 611 644 0
c gate 645 -612 -644 0
-612 -645 0
-644 -645 0
612 644 645 0
c gate 646 -643 645 0
-643 -646 0
645 -646 0
643 -645 646 0
c gate 647 -639 -641 0
-639 -647 0
-641 -647 0
639 641 647 0
c gate 648 -3 -13 0
-3 -648 0
-13 -648 0
3 13 648 0
c gate 649 -426 -648 0
-426 -649 0
-648 -649 0
426 648 649 0
c gate 650 1 11 0
1 -650 0
11 -650 0
-1 -11 650 0
c gate 651 632 650 0
632 -651 0
650 -651 0
-632 -650 651 0
c gate 652 -649 651 0
-649 -652 0
651 -652 0
649 -651 652 0
c gate 653 -642 652 0
-642 -653 0
652 -653 0
642 -652 653 0
c gate 654 -647 653 0
-647 -654 0
653 -654 0
647 -653 654 0
c gate 655 -646 -654 0
-646 -655 0
-654 -655 0
646 654 655 0
c gate 656 643 -645 0
643 -656 0
-645 -656 0
-643 645 656 0
c gate 657 -655 -656 0
-655 -657 0
-656 -657 0
655 656 657 0
c gate 658 628 657 0
628 -658 0
657 -658 0
-628 -657 658 0
c gate 659 593 658 0
593 -659 0
658 -659 0
-593 -658 659 0
c gate 660 -588 659 0
-588 -660 0
659 -660 0
588 -659 660 0
c gate 661 -584 660 0
-584 -661 0
660 -661 0
584 -660 661 0
c gate 662 572 661 0
572 -662 0
661 -662 0
-572 -661 662 0
c gate 663 404 -406 0
404 -663 0
-406 -663 0
-404 406 663 0
c gate 664 408 -663 0
408 -664 0
-663 -664 0
-408 663 664 0
c gate 665 413 664 0
413 -665 0
664 -665 0
-413 -664 665 0
c gate 666 -144 -418 0
-144 -666 0
-418 -666 0
144 418 666 0
c gate 667 665 666 0
665 -667 0
666 -667 0
-665 -666 667 0
c gate 668 662 667 0
662 -668 0
667 -668 0
-662 -667 668 0
c gate 669 420 668 0
420 -669 0
668 -669 0
-420 -668 669 0
c gate 670 89 95 0
89 -670 0
95 -670 0
-89 -95 670 0
c gate 671 -420 670 0
-420 -671 0
670 -671 0
420 -670 671 0
c gate 672 -669 -671 0
-669 -672 0
-671 -672 0
669 671 672 0
c gate 673 -98 -672 0
-98 -673 0
-672 -673 0
98 672 673 0
c gate 674 593 623 0
593 -674 0
623 -674 0
-593 -623 674 0
c gate 675 572 674 0
572 -675 0
674 -675 0
-572 -674 675 0
c gate 676 -570 -675 0
-570 -676 0
-675 -676 0
570 675 676 0
c gate 677 -588 -676 0
-588 -677 0
-676 -677 0
588 676 677 0
c gate 678 -585 587 0
-585 -678 0
587 -678 0
585 -587 678 0
c gate 679 -581 583 0
-581 -679 0
583 -679 0
581 -583 679 0
c gate 680 -678 -679 0
-678 -680 0
-679 -680 0
678 679 680 0
c gate 681 -677 680 0
-677 -681 0
680 -681 0
677 -680 681 0
c gate 682 -584 -681 0
-584 -682 0
-681 -682 0
584 681 682 0
c gate 683 -407 -663 0
-407 -683 0
-663 -683 0
407 663 683 0
c gate 684 -682 683 0
-682 -684 0
683 -684 0
682 -683 684 0
c gate 685 -667 -684 0
-667 -685 0
-684 -685 0
667 684 685 0
c gate 686 662 680 0
662 -686 0
680 -686 0
-662 -680 686 0
c gate 687 -685 686 0
-685 -687 0
686 -687 0
685 -686 687 0
c gate 688 665 682 0
665 -688 0
682 -688 0
-665 -682 688 0
c gate 689 628 646 0
628 -689 0
646 -689 0
-628 -646 689 0
c gate 690 -652 -689 0
-652 -690 0
-689 -690 0
652 689 690 0
c gate 691 -659 690 0
-659 -691 0
690 -691 0
659 -690 691 0
c gate 692 -688 691 0
-688 -692 0
691 -692 0
688 -691 692 0
c gate 693 -687 692 0
-687 -693 0
692 -693 0
687 -692 693 0
c gate 694 -673 693 0
-673 -694 0
693 -694 0
673 -693 694 0
c PO
-694 0
